120
150
70
99
80
51
24
81
100
75
80
28
76
99
37
70
86
38
51
50
70
80
81
68
47
64
31
55
85
20
43
45
92
58
43
76
69
81
62
87
37
41
53
58
50
28
59
49
96
54
42
42
85
94
34
76
45
28
31
69
81
31
29
28
72
43
34
70
80
38
20
31
60
85
31
99
69
37
63
87
51
44
64
28
58
100
80
86
70
62
50
70
80
54
39
57
75
72
34
100
99
86
30
76
87
37
62
51
50
37
76
39
34
87
62
76
72
70
80
64
86
34
